\ This file has been generated by DOcplex
\ ENCODING=ISO-8859-1
\Problem name: RelaxedJobSequencing

Minimize
 obj: 10 SetupIndicator_1_1 + 10 SetupIndicator_1_2 + 10 SetupIndicator_1_3
      + 15 SetupIndicator_2_1 + 15 SetupIndicator_2_2 + 15 SetupIndicator_2_3
      + 12 SetupIndicator_3_1 + 12 SetupIndicator_3_2 + 12 SetupIndicator_3_3
      + 8 SetupIndicator_4_1 + 8 SetupIndicator_4_2 + 8 SetupIndicator_4_3
Subject To
 Job_1_Once: JobSequence_1_1 + JobSequence_1_2 + JobSequence_1_3 <= 1
 Job_2_Once: JobSequence_2_1 + JobSequence_2_2 + JobSequence_2_3 <= 1
 Job_3_Once: JobSequence_3_1 + JobSequence_3_2 + JobSequence_3_3 <= 1
 OneJob_At_Time_1: JobSequence_1_1 + JobSequence_2_1 + JobSequence_3_1 = 1
 OneJob_At_Time_2: JobSequence_1_2 + JobSequence_2_2 + JobSequence_3_2 = 1
 OneJob_At_Time_3: JobSequence_1_3 + JobSequence_2_3 + JobSequence_3_3 = 1
 Setup_1_1_1: JobSequence_1_1 - ToolInMagazine_1_1 <= 0
 Setup_1_1_2: JobSequence_1_2 - ToolInMagazine_1_2 <= 0
 Setup_1_1_3: JobSequence_1_3 - ToolInMagazine_1_3 <= 0
 Setup_1_3_1: JobSequence_1_1 - ToolInMagazine_3_1 <= 0
 Setup_1_3_2: JobSequence_1_2 - ToolInMagazine_3_2 <= 0
 Setup_1_3_3: JobSequence_1_3 - ToolInMagazine_3_3 <= 0
 Setup_2_2_1: JobSequence_2_1 - ToolInMagazine_2_1 <= 0
 Setup_2_2_2: JobSequence_2_2 - ToolInMagazine_2_2 <= 0
 Setup_2_2_3: JobSequence_2_3 - ToolInMagazine_2_3 <= 0
 Setup_2_3_1: JobSequence_2_1 - ToolInMagazine_3_1 <= 0
 Setup_2_3_2: JobSequence_2_2 - ToolInMagazine_3_2 <= 0
 Setup_2_3_3: JobSequence_2_3 - ToolInMagazine_3_3 <= 0
 Setup_3_2_1: JobSequence_3_1 - ToolInMagazine_2_1 <= 0
 Setup_3_2_2: JobSequence_3_2 - ToolInMagazine_2_2 <= 0
 Setup_3_2_3: JobSequence_3_3 - ToolInMagazine_2_3 <= 0
 Setup_3_4_1: JobSequence_3_1 - ToolInMagazine_4_1 <= 0
 Setup_3_4_2: JobSequence_3_2 - ToolInMagazine_4_2 <= 0
 Setup_3_4_3: JobSequence_3_3 - ToolInMagazine_4_3 <= 0
 Magazine_Capacity_1: ToolInMagazine_1_1 + ToolInMagazine_2_1
                      + ToolInMagazine_3_1 + ToolInMagazine_4_1 <= 2
 Magazine_Capacity_2: ToolInMagazine_1_2 + ToolInMagazine_2_2
                      + ToolInMagazine_3_2 + ToolInMagazine_4_2 <= 2
 Magazine_Capacity_3: ToolInMagazine_1_3 + ToolInMagazine_2_3
                      + ToolInMagazine_3_3 + ToolInMagazine_4_3 <= 2
 Constraint_Z1_1_1: SetupIndicator_1_1 - ToolInMagazine_1_1 >= 0
 Constraint_Z2_1_1: SetupIndicator_1_1 - ToolInMagazine_1_1 >= 0
 Constraint_Z1_1_2: SetupIndicator_1_2 + ToolInMagazine_1_1 - ToolInMagazine_1_2
                     >= 0
 Constraint_Z2_1_2: SetupIndicator_1_2 - ToolInMagazine_1_1 + ToolInMagazine_1_2
                     >= 0
 Constraint_Z1_1_3: SetupIndicator_1_3 + ToolInMagazine_1_2 - ToolInMagazine_1_3
                     >= 0
 Constraint_Z2_1_3: SetupIndicator_1_3 - ToolInMagazine_1_2 + ToolInMagazine_1_3
                     >= 0
 Constraint_Z1_2_1: SetupIndicator_2_1 - ToolInMagazine_2_1 >= 0
 Constraint_Z2_2_1: SetupIndicator_2_1 - ToolInMagazine_2_1 >= 0
 Constraint_Z1_2_2: SetupIndicator_2_2 + ToolInMagazine_2_1 - ToolInMagazine_2_2
                     >= 0
 Constraint_Z2_2_2: SetupIndicator_2_2 - ToolInMagazine_2_1 + ToolInMagazine_2_2
                     >= 0
 Constraint_Z1_2_3: SetupIndicator_2_3 + ToolInMagazine_2_2 - ToolInMagazine_2_3
                     >= 0
 Constraint_Z2_2_3: SetupIndicator_2_3 - ToolInMagazine_2_2 + ToolInMagazine_2_3
                     >= 0
 Constraint_Z1_3_1: SetupIndicator_3_1 - ToolInMagazine_3_1 >= 0
 Constraint_Z2_3_1: SetupIndicator_3_1 - ToolInMagazine_3_1 >= 0
 Constraint_Z1_3_2: SetupIndicator_3_2 + ToolInMagazine_3_1 - ToolInMagazine_3_2
                     >= 0
 Constraint_Z2_3_2: SetupIndicator_3_2 - ToolInMagazine_3_1 + ToolInMagazine_3_2
                     >= 0
 Constraint_Z1_3_3: SetupIndicator_3_3 + ToolInMagazine_3_2 - ToolInMagazine_3_3
                     >= 0
 Constraint_Z2_3_3: SetupIndicator_3_3 - ToolInMagazine_3_2 + ToolInMagazine_3_3
                     >= 0
 Constraint_Z1_4_1: SetupIndicator_4_1 - ToolInMagazine_4_1 >= 0
 Constraint_Z2_4_1: SetupIndicator_4_1 - ToolInMagazine_4_1 >= 0
 Constraint_Z1_4_2: SetupIndicator_4_2 + ToolInMagazine_4_1 - ToolInMagazine_4_2
                     >= 0
 Constraint_Z2_4_2: SetupIndicator_4_2 - ToolInMagazine_4_1 + ToolInMagazine_4_2
                     >= 0
 Constraint_Z1_4_3: SetupIndicator_4_3 + ToolInMagazine_4_2 - ToolInMagazine_4_3
                     >= 0
 Constraint_Z2_4_3: SetupIndicator_4_3 - ToolInMagazine_4_2 + ToolInMagazine_4_3
                     >= 0

Bounds
       JobSequence_1_1 <= 1
       JobSequence_1_2 <= 1
       JobSequence_1_3 <= 1
       JobSequence_2_1 <= 1
       JobSequence_2_2 <= 1
       JobSequence_2_3 <= 1
       JobSequence_3_1 <= 1
       JobSequence_3_2 <= 1
       JobSequence_3_3 <= 1
       ToolInMagazine_1_1 <= 1
       ToolInMagazine_1_2 <= 1
       ToolInMagazine_1_3 <= 1
       ToolInMagazine_2_1 <= 1
       ToolInMagazine_2_2 <= 1
       ToolInMagazine_2_3 <= 1
       ToolInMagazine_3_1 <= 1
       ToolInMagazine_3_2 <= 1
       ToolInMagazine_3_3 <= 1
       ToolInMagazine_4_1 <= 1
       ToolInMagazine_4_2 <= 1
       ToolInMagazine_4_3 <= 1
       SetupIndicator_1_1 <= 1
       SetupIndicator_1_2 <= 1
       SetupIndicator_1_3 <= 1
       SetupIndicator_2_1 <= 1
       SetupIndicator_2_2 <= 1
       SetupIndicator_2_3 <= 1
       SetupIndicator_3_1 <= 1
       SetupIndicator_3_2 <= 1
       SetupIndicator_3_3 <= 1
       SetupIndicator_4_1 <= 1
       SetupIndicator_4_2 <= 1
       SetupIndicator_4_3 <= 1

Generals
 JobSequence_1_1#33 JobSequence_1_2#34 JobSequence_1_3#35 JobSequence_2_1#36
 JobSequence_2_2#37 JobSequence_2_3#38 JobSequence_3_1#39 JobSequence_3_2#40
 JobSequence_3_3#41 ToolInMagazine_1_1#42 SetupIndicator_1_1#43
 ToolInMagazine_1_2#44 SetupIndicator_1_2#45 ToolInMagazine_1_3#46
 SetupIndicator_1_3#47 ToolInMagazine_2_1#48 SetupIndicator_2_1#49
 ToolInMagazine_2_2#50 SetupIndicator_2_2#51 ToolInMagazine_2_3#52
 SetupIndicator_2_3#53 ToolInMagazine_3_1#54 SetupIndicator_3_1#55
 ToolInMagazine_3_2#56 SetupIndicator_3_2#57 ToolInMagazine_3_3#58
 SetupIndicator_3_3#59 ToolInMagazine_4_1#60 SetupIndicator_4_1#61
 ToolInMagazine_4_2#62 SetupIndicator_4_2#63 ToolInMagazine_4_3#64
 SetupIndicator_4_3#65
End
